39
137
345
263
310
386
1245
316
2150
1644
2643
450
1287
6048
4781
6546
6503
3899
4659
2361
6445
5640
7069
8161
9438
10102
202
8960
3382
13549
11120
10665
4535
9494
5485
21899
18090
19015
21015
6790
19921
20834
30733
32440
10635
38594
30019
33727
26768
42426
47728
47651
52215
43098
56153
21025
61525
34927
62622
46365
67266
66670
18742
62838
70534
44202
49287
27890
21881
58484
65364
30979
81130
34492
70943
64416
4826
83890
99167
57619
81494
19663
118169
73667
15675
11678
116597
113119
123939
119234
96840
101623
80341
127137
130680
122994
145158
127776
80283
151098
